Version identifier: 22.1.0.0 | 2022-03-09 | 1a383f8ce
CPXPARAM_Threads                                 1
CPXPARAM_MIP_Strategy_VariableSelect             3
CPXPARAM_TimeLimit                               599.99998225000002
1 of 1 MIP starts provided solutions.
MIP start 'm1' defined initial solution with objective 3.0000.
Tried aggregator 1 time.
MIP Presolve eliminated 20 rows and 0 columns.
MIP Presolve modified 259 coefficients.
Reduced MIP has 901 rows, 2100 columns, and 24656 nonzeros.
Reduced MIP has 2100 binaries, 0 generals, 0 SOSs, and 0 indicators.
Presolve time = 0.04 sec. (58.38 ticks)
Probing time = 0.01 sec. (7.11 ticks)
Tried aggregator 1 time.
Detecting symmetries...
MIP Presolve modified 15 coefficients.
Reduced MIP has 901 rows, 2100 columns, and 25020 nonzeros.
Reduced MIP has 2100 binaries, 0 generals, 0 SOSs, and 0 indicators.
Presolve time = 0.03 sec. (29.48 ticks)
Probing time = 0.01 sec. (7.15 ticks)
Clique table members: 785.
MIP emphasis: balance optimality and feasibility.
MIP search method: dynamic search.
Parallel mode: none, using 1 thread.
Root relaxation solution time = 0.14 sec. (140.06 ticks)

        Nodes                                         Cuts/
   Node  Left     Objective  IInf  Best Integer    Best Bound    ItCnt     Gap

*     0+    0                            3.0000     5050.0000              --- 
      0     0      100.0000   388        3.0000      100.0000     1502     --- 
      0     0      100.0000   199        3.0000    Cliques: 7     1751     --- 
      0     0      100.0000   303        3.0000      Cuts: 88     2578     --- 
      0     0      100.0000   180        3.0000      Cuts: 21     2936     --- 
*     0+    0                           88.0000      100.0000            13.64%
      0     0        cutoff             88.0000      100.0000     2936   13.64%
      0     0      100.0000   347       88.0000      Cuts: 49     3524   13.64%
*     0+    0                           93.0000      100.0000             7.53%
      0     0        cutoff             93.0000      100.0000     3524    7.53%
Detecting symmetries...
      0     2      100.0000    89       93.0000      100.0000     3524    7.53%
Elapsed time = 4.18 sec. (3926.86 ticks, tree = 0.01 MB, solutions = 3)
      1     3      100.0000   126       93.0000      100.0000     5576    7.53%
      3     5      100.0000   506       93.0000      100.0000     7431    7.53%
      6     8      100.0000   122       93.0000      100.0000     8688    7.53%
      7     9      100.0000   196       93.0000      100.0000     9877    7.53%
      9    11      100.0000   300       93.0000      100.0000    11477    7.53%
     10    12      100.0000   118       93.0000      100.0000    12752    7.53%
     11    13      100.0000   307       93.0000      100.0000    14058    7.53%
     13    15      100.0000   350       93.0000      100.0000    15896    7.53%
     15    17      100.0000   371       93.0000      100.0000    17267    7.53%
     22    24      100.0000   240       93.0000      100.0000    20711    7.53%
Elapsed time = 8.19 sec. (7916.71 ticks, tree = 0.13 MB, solutions = 3)
     30    32      100.0000   170       93.0000      100.0000    26543    7.53%
     35    37      100.0000   339       93.0000      100.0000    33704    7.53%
     43    45      100.0000   230       93.0000      100.0000    35831    7.53%
     50    52      100.0000   261       93.0000      100.0000    37485    7.53%
     62    64      100.0000   180       93.0000      100.0000    39324    7.53%
     71    73      100.0000   194       93.0000      100.0000    41198    7.53%
     81    83      100.0000   254       93.0000      100.0000    43393    7.53%
     90    92      100.0000   222       93.0000      100.0000    45322    7.53%
    103   105      100.0000   152       93.0000      100.0000    47142    7.53%
    120   121      100.0000   132       93.0000      100.0000    50382    7.53%
Elapsed time = 18.81 sec. (18140.66 ticks, tree = 0.81 MB, solutions = 3)
    142   143      100.0000   118       93.0000      100.0000    53824    7.53%
*   163   157      integral     0       97.0000      100.0000    56343    3.09%
    175   162      100.0000    92       97.0000      100.0000    58398    3.09%
*   208   161      integral     0       98.0000      100.0000    62195    2.04%
    222   161    infeasible             98.0000      100.0000    64083    2.04%
    262   165      100.0000   105       98.0000      100.0000    69444    2.04%
    306   163       99.0000    55       98.0000      100.0000    76562    2.04%
    351   163    infeasible             98.0000      100.0000    82318    2.04%
    382   170       99.0000    93       98.0000      100.0000    88705    2.04%
*   383   155      integral     0       99.0000      100.0000    88751    1.01%
    411   166      100.0000    76       99.0000      100.0000    94164    1.01%
    444   167      100.0000    84       99.0000      100.0000   101715    1.01%
    470   175      100.0000   100       99.0000      100.0000   109259    1.01%
Elapsed time = 29.33 sec. (27822.59 ticks, tree = 1.05 MB, solutions = 6)
    498   178    infeasible             99.0000      100.0000   117239    1.01%
    538   179    infeasible             99.0000      100.0000   123996    1.01%
    576   178      100.0000    76       99.0000      100.0000   131744    1.01%
    609   183    infeasible             99.0000      100.0000   138284    1.01%
    641   186      100.0000   107       99.0000      100.0000   145877    1.01%
    668   185      100.0000   113       99.0000      100.0000   156004    1.01%
    694   185    infeasible             99.0000      100.0000   165693    1.01%
    728   185      100.0000    87       99.0000      100.0000   174481    1.01%
    768   186      100.0000    59       99.0000      100.0000   181320    1.01%
    806   186      100.0000   100       99.0000      100.0000   189137    1.01%
Elapsed time = 39.74 sec. (37504.81 ticks, tree = 1.04 MB, solutions = 6)
    836   197      100.0000   106       99.0000      100.0000   193037    1.01%
    860   210      100.0000   129       99.0000      100.0000   198323    1.01%
    892   210      100.0000    69       99.0000      100.0000   206416    1.01%
    921   212      100.0000    87       99.0000      100.0000   214141    1.01%
    957   211      100.0000   114       99.0000      100.0000   221687    1.01%
    994   208      100.0000    94       99.0000      100.0000   230322    1.01%
   1029   209      100.0000    50       99.0000      100.0000   238212    1.01%
   1063   210      100.0000   119       99.0000      100.0000   246136    1.01%
   1093   209      100.0000   126       99.0000      100.0000   254949    1.01%
   1124   208    infeasible             99.0000      100.0000   263750    1.01%
Elapsed time = 50.29 sec. (47197.78 ticks, tree = 1.06 MB, solutions = 6)
   1154   208      100.0000   137       99.0000      100.0000   271953    1.01%
   1187   210      100.0000   105       99.0000      100.0000   279610    1.01%
   1214   212      100.0000    95       99.0000      100.0000   287008    1.01%
   1243   218    infeasible             99.0000      100.0000   293930    1.01%
   1275   220      100.0000    85       99.0000      100.0000   302167    1.01%
   1309   221    infeasible             99.0000      100.0000   310379    1.01%
   1338   233      100.0000   138       99.0000      100.0000   315033    1.01%
   1370   234      100.0000    96       99.0000      100.0000   322082    1.01%
   1403   239      100.0000    82       99.0000      100.0000   329218    1.01%
   1436   238    infeasible             99.0000      100.0000   338420    1.01%
Elapsed time = 60.94 sec. (56947.68 ticks, tree = 1.09 MB, solutions = 6)
   1469   239      100.0000    90       99.0000      100.0000   346637    1.01%
   1502   240    infeasible             99.0000      100.0000   354326    1.01%
   1540   239      100.0000    97       99.0000      100.0000   361041    1.01%
   1575   236    infeasible             99.0000      100.0000   369354    1.01%
   1605   240    infeasible             99.0000      100.0000   375426    1.01%
   1636   243      100.0000   108       99.0000      100.0000   382496    1.01%
   1672   244      100.0000   105       99.0000      100.0000   389801    1.01%
   1707   244      100.0000    89       99.0000      100.0000   397227    1.01%
   1740   243    infeasible             99.0000      100.0000   405699    1.01%
   1763   254      100.0000   124       99.0000      100.0000   412111    1.01%
Elapsed time = 71.28 sec. (66619.37 ticks, tree = 1.09 MB, solutions = 6)
   1798   252    infeasible             99.0000      100.0000   419940    1.01%
   1833   257      100.0000   104       99.0000      100.0000   426811    1.01%
   1867   270      100.0000   110       99.0000      100.0000   430872    1.01%
   1902   275      100.0000    91       99.0000      100.0000   436761    1.01%
   1935   277      100.0000    98       99.0000      100.0000   443900    1.01%
   1937   279      100.0000    96       99.0000      100.0000   443921    1.01%

Performing restart 1

Repeating presolve.
Tried aggregator 1 time.
MIP Presolve eliminated 1 rows and 100 columns.
Reduced MIP has 900 rows, 2000 columns, and 17720 nonzeros.
Reduced MIP has 2000 binaries, 0 generals, 0 SOSs, and 0 indicators.
Presolve time = 0.01 sec. (10.94 ticks)
Tried aggregator 1 time.
Reduced MIP has 900 rows, 2000 columns, and 17720 nonzeros.
Reduced MIP has 2000 binaries, 0 generals, 0 SOSs, and 0 indicators.
Presolve time = 0.01 sec. (13.24 ticks)
Represolve time = 0.14 sec. (88.44 ticks)
   1938     0      100.0000   234       99.0000    Cliques: 5   445995    1.01%
   1938     0      100.0000   393       99.0000     Cuts: 246   447188    1.01%
   1938     0      100.0000   147       99.0000       Cuts: 6   447292    1.01%
   1938     0      100.0000   256       99.0000     Cuts: 142   448084    1.01%
   1938     0      100.0000   156       99.0000       Cuts: 2   448136    1.01%
   1938     0      100.0000   358       99.0000     Cuts: 127   448867    1.01%
   1938     0      100.0000   152       99.0000    Cliques: 2   449205    1.01%
   1938     0      100.0000   242       99.0000     Cuts: 115   449975    1.01%
*  1938+    0                          100.0000      100.0000             0.00%
   1938     0        cutoff            100.0000      100.0000   449975    0.00%

Clique cuts applied:  5
Zero-half cuts applied:  1

Root node processing (before b&c):
  Real time             =    4.17 sec. (3918.45 ticks)
Sequential b&c:
  Real time             =   79.85 sec. (74262.75 ticks)
                          ------------
Total (root+branch&cut) =   84.02 sec. (78181.20 ticks)
Primal:	100
Dual:	100
Status:	Optimal
Time:	84
Sequence:
	4
	9
	12
	10
	14
	12
	5
	6
	2
	10
	17
	19
	4
	9
	19
	18
	16
	12
	18
	9
	15
	14
	7
	1
	3
	7
	1
	8
	9
	19
	8
	16
	6
	14
	17
	15
	11
	0
	16
	12
	8
	0
	16
	2
	11
	16
	2
	0
	16
	2
	11
	6
	15
	17
	11
	1
	3
	13
	15
	18
	9
	19
	4
	17
	11
	1
	0
	13
	2
	10
	9
	7
	4
	19
	9
	14
	15
	13
	3
	5
	19
	8
	7
	1
	3
	11
	19
	4
	0
	11
	16
	12
	8
	5
	19
	3
	10
	11
	12
	3
